49509.81
50688.57
47202.64
48868.54
50743.54
27823.84
27252.32
27375.37
26857.09
27186.99
22180.33
22160.39
22657.09
22312.01
22629.44
21331.81
21188.89
20713.43
20537.45
21560.86
